
Gurobi 8.1.0 (linux64, Python) logging started Thu Jul 25 17:15:00 2019

Academic license - for non-commercial use only

Gurobi 8.1.0 (linux64, Python) logging started Thu Jul 25 17:16:14 2019

Academic license - for non-commercial use only

Gurobi 8.1.0 (linux64, Python) logging started Thu Jul 25 17:17:11 2019

Academic license - for non-commercial use only

Gurobi 8.1.0 (linux64, Python) logging started Thu Jul 25 17:20:15 2019

Academic license - for non-commercial use only

Gurobi 8.1.0 (linux64, Python) logging started Thu Jul 25 17:20:41 2019

Academic license - for non-commercial use only
Optimize a model with 14917 rows, 46596 columns and 144427 nonzeros
Variable types: 0 continuous, 46596 integer (46596 binary)
Coefficient statistics:
  Matrix range     [1e+00, 2e+02]
  Objective range  [5e-01, 1e+00]
  Bounds range     [1e+00, 1e+00]
  RHS range        [1e+00, 6e+00]
Found heuristic solution: objective 66.0000000

Explored 0 nodes (0 simplex iterations) in 0.06 seconds
Thread count was 1 (of 8 available processors)

Solution count 1: 66 

Optimal solution found (tolerance 1.00e-04)
Best objective 6.600000000000e+01, best bound 6.600000000000e+01, gap 0.0000%

Gurobi 8.1.0 (linux64, Python) logging started Thu Jul 25 17:21:08 2019

Academic license - for non-commercial use only
Optimize a model with 14917 rows, 46596 columns and 144427 nonzeros
Variable types: 0 continuous, 46596 integer (46596 binary)
Coefficient statistics:
  Matrix range     [1e+00, 2e+02]
  Objective range  [5e-01, 1e+00]
  Bounds range     [1e+00, 1e+00]
  RHS range        [1e+00, 6e+00]
Found heuristic solution: objective 66.0000000

Explored 0 nodes (0 simplex iterations) in 0.01 seconds
Thread count was 1 (of 8 available processors)

Solution count 1: 66 

Optimal solution found (tolerance 1.00e-04)
Best objective 6.600000000000e+01, best bound 6.600000000000e+01, gap 0.0000%

Gurobi 8.1.0 (linux64, Python) logging started Thu Jul 25 17:21:24 2019

Academic license - for non-commercial use only
Optimize a model with 14917 rows, 46596 columns and 144427 nonzeros
Variable types: 0 continuous, 46596 integer (46596 binary)
Coefficient statistics:
  Matrix range     [1e+00, 2e+02]
  Objective range  [5e-01, 1e+00]
  Bounds range     [1e+00, 1e+00]
  RHS range        [1e+00, 6e+00]
Found heuristic solution: objective 66.0000000

Explored 0 nodes (0 simplex iterations) in 0.01 seconds
Thread count was 1 (of 8 available processors)

Solution count 1: 66 

Optimal solution found (tolerance 1.00e-04)
Best objective 6.600000000000e+01, best bound 6.600000000000e+01, gap 0.0000%

Gurobi 8.1.0 (linux64, Python) logging started Thu Jul 25 17:21:58 2019

Academic license - for non-commercial use only
Optimize a model with 14917 rows, 46596 columns and 144427 nonzeros
Variable types: 0 continuous, 46596 integer (46596 binary)
Coefficient statistics:
  Matrix range     [1e+00, 2e+02]
  Objective range  [5e-01, 1e+00]
  Bounds range     [1e+00, 1e+00]
  RHS range        [1e+00, 6e+00]
Found heuristic solution: objective 66.0000000

Explored 0 nodes (0 simplex iterations) in 0.02 seconds
Thread count was 1 (of 8 available processors)

Solution count 1: 66 

Optimal solution found (tolerance 1.00e-04)
Best objective 6.600000000000e+01, best bound 6.600000000000e+01, gap 0.0000%

Gurobi 8.1.0 (linux64, Python) logging started Thu Jul 25 17:23:09 2019

Academic license - for non-commercial use only
Optimize a model with 14917 rows, 46596 columns and 144427 nonzeros
Variable types: 0 continuous, 46596 integer (46596 binary)
Coefficient statistics:
  Matrix range     [1e+00, 2e+02]
  Objective range  [5e-01, 1e+00]
  Bounds range     [1e+00, 1e+00]
  RHS range        [1e+00, 6e+00]
Found heuristic solution: objective 15.0000000
Presolve removed 12141 rows and 40708 columns
Presolve time: 0.18s
Presolved: 2776 rows, 5888 columns, 24142 nonzeros
Found heuristic solution: objective 15.0000000
Variable types: 0 continuous, 5888 integer (5888 binary)

Root relaxation: objective 2.305556e+01, 1108 iterations, 0.02 seconds

    Nodes    |    Current Node    |     Objective Bounds      |     Work
 Expl Unexpl |  Obj  Depth IntInf | Incumbent    BestBd   Gap | It/Node Time

     0     0   23.05556    0   21   15.00000   23.05556  53.7%     -    0s
H    0     0                      17.5000000   23.05556  31.7%     -    0s
     0     0   23.05556    0   45   17.50000   23.05556  31.7%     -    0s
     0     0   23.05556    0   41   17.50000   23.05556  31.7%     -    0s
     0     0   23.05556    0   20   17.50000   23.05556  31.7%     -    0s
     0     0   23.05556    0   66   17.50000   23.05556  31.7%     -    0s
     0     0   21.11111    0   47   17.50000   21.11111  20.6%     -    0s
     0     0   21.11111    0   45   17.50000   21.11111  20.6%     -    1s
     0     0   21.02642    0   55   17.50000   21.02642  20.2%     -    1s
     0     0   21.02642    0   50   17.50000   21.02642  20.2%     -    1s
     0     0   20.77218    0  105   17.50000   20.77218  18.7%     -    1s
     0     0   20.77218    0  100   17.50000   20.77218  18.7%     -    1s
     0     0   20.61209    0   99   17.50000   20.61209  17.8%     -    1s
     0     0   20.53601    0  113   17.50000   20.53601  17.3%     -    1s
     0     0   20.53601    0  110   17.50000   20.53601  17.3%     -    1s
     0     0   20.09662    0   91   17.50000   20.09662  14.8%     -    1s
     0     0   20.02053    0   98   17.50000   20.02053  14.4%     -    1s
     0     0   20.02053    0  111   17.50000   20.02053  14.4%     -    1s
     0     0   19.36111    0   97   17.50000   19.36111  10.6%     -    1s
     0     0   19.36111    0   77   17.50000   19.36111  10.6%     -    1s
     0     0   19.16667    0   86   17.50000   19.16667  9.52%     -    1s
     0     0   19.16667    0   74   17.50000   19.16667  9.52%     -    2s
     0     0   19.16667    0   71   17.50000   19.16667  9.52%     -    2s
     0     0   19.16667    0   54   17.50000   19.16667  9.52%     -    2s
     0     0   19.16667    0    8   17.50000   19.16667  9.52%     -    2s
     0     0   19.16667    0   30   17.50000   19.16667  9.52%     -    2s
     0     0   19.03333    0   13   17.50000   19.03333  8.76%     -    2s
     0     0   19.03333    0   32   17.50000   19.03333  8.76%     -    2s
     0     0   18.76667    0   52   17.50000   18.76667  7.24%     -    2s
     0     0   18.76667    0   55   17.50000   18.76667  7.24%     -    2s
     0     0   18.10000    0   44   17.50000   18.10000  3.43%     -    2s
     0     0   18.10000    0   38   17.50000   18.10000  3.43%     -    2s

Cutting planes:
  Gomory: 18
  Cover: 44
  Clique: 44
  MIR: 36
  StrongCG: 2
  GUB cover: 6
  Zero half: 1

Explored 1 nodes (11204 simplex iterations) in 3.12 seconds
Thread count was 8 (of 8 available processors)

Solution count 4: 17.5 15 15 10 

Optimal solution found (tolerance 1.00e-04)
Best objective 1.750000000000e+01, best bound 1.750000000000e+01, gap 0.0000%

Gurobi 8.1.0 (linux64, Python) logging started Thu Jul 25 17:23:38 2019

Academic license - for non-commercial use only
Optimize a model with 14917 rows, 46596 columns and 144427 nonzeros
Variable types: 0 continuous, 46596 integer (46596 binary)
Coefficient statistics:
  Matrix range     [1e+00, 2e+02]
  Objective range  [5e-01, 1e+00]
  Bounds range     [1e+00, 1e+00]
  RHS range        [1e+00, 6e+00]
Found heuristic solution: objective 15.0000000
Presolve removed 12141 rows and 40708 columns
Presolve time: 0.17s
Presolved: 2776 rows, 5888 columns, 24142 nonzeros
Found heuristic solution: objective 15.0000000
Variable types: 0 continuous, 5888 integer (5888 binary)

Root relaxation: objective 2.305556e+01, 1108 iterations, 0.02 seconds

    Nodes    |    Current Node    |     Objective Bounds      |     Work
 Expl Unexpl |  Obj  Depth IntInf | Incumbent    BestBd   Gap | It/Node Time

     0     0   23.05556    0   21   15.00000   23.05556  53.7%     -    0s
H    0     0                      17.5000000   23.05556  31.7%     -    0s
     0     0   23.05556    0   45   17.50000   23.05556  31.7%     -    0s
     0     0   23.05556    0   41   17.50000   23.05556  31.7%     -    0s
     0     0   23.05556    0   20   17.50000   23.05556  31.7%     -    0s
     0     0   23.05556    0   66   17.50000   23.05556  31.7%     -    0s
     0     0   21.11111    0   47   17.50000   21.11111  20.6%     -    0s
     0     0   21.11111    0   45   17.50000   21.11111  20.6%     -    1s
     0     0   21.02642    0   55   17.50000   21.02642  20.2%     -    1s
     0     0   21.02642    0   50   17.50000   21.02642  20.2%     -    1s
     0     0   20.77218    0  105   17.50000   20.77218  18.7%     -    1s
     0     0   20.77218    0  100   17.50000   20.77218  18.7%     -    1s
     0     0   20.61209    0   99   17.50000   20.61209  17.8%     -    1s
     0     0   20.53601    0  113   17.50000   20.53601  17.3%     -    1s
     0     0   20.53601    0  110   17.50000   20.53601  17.3%     -    1s
     0     0   20.09662    0   91   17.50000   20.09662  14.8%     -    1s
     0     0   20.02053    0   98   17.50000   20.02053  14.4%     -    1s
     0     0   20.02053    0  111   17.50000   20.02053  14.4%     -    1s
     0     0   19.36111    0   97   17.50000   19.36111  10.6%     -    1s
     0     0   19.36111    0   77   17.50000   19.36111  10.6%     -    1s
     0     0   19.16667    0   86   17.50000   19.16667  9.52%     -    1s
     0     0   19.16667    0   74   17.50000   19.16667  9.52%     -    2s
     0     0   19.16667    0   71   17.50000   19.16667  9.52%     -    2s
     0     0   19.16667    0   54   17.50000   19.16667  9.52%     -    2s
     0     0   19.16667    0    8   17.50000   19.16667  9.52%     -    2s
     0     0   19.16667    0   30   17.50000   19.16667  9.52%     -    2s
     0     0   19.03333    0   13   17.50000   19.03333  8.76%     -    2s
     0     0   19.03333    0   32   17.50000   19.03333  8.76%     -    2s
     0     0   18.76667    0   52   17.50000   18.76667  7.24%     -    2s
     0     0   18.76667    0   55   17.50000   18.76667  7.24%     -    2s
     0     0   18.10000    0   44   17.50000   18.10000  3.43%     -    2s
     0     0   18.10000    0   38   17.50000   18.10000  3.43%     -    2s

Cutting planes:
  Gomory: 18
  Cover: 44
  Clique: 44
  MIR: 36
  StrongCG: 2
  GUB cover: 6
  Zero half: 1

Explored 1 nodes (11204 simplex iterations) in 2.89 seconds
Thread count was 8 (of 8 available processors)

Solution count 4: 17.5 15 15 10 

Optimal solution found (tolerance 1.00e-04)
Best objective 1.750000000000e+01, best bound 1.750000000000e+01, gap 0.0000%

Gurobi 8.1.0 (linux64, Python) logging started Thu Jul 25 18:29:14 2019

Academic license - for non-commercial use only
Optimize a model with 14917 rows, 46596 columns and 144427 nonzeros
Variable types: 0 continuous, 46596 integer (46596 binary)
Coefficient statistics:
  Matrix range     [1e+00, 2e+02]
  Objective range  [5e-01, 1e+00]
  Bounds range     [1e+00, 1e+00]
  RHS range        [1e+00, 6e+00]
Found heuristic solution: objective 15.0000000
Presolve removed 12141 rows and 40708 columns
Presolve time: 0.16s
Presolved: 2776 rows, 5888 columns, 24142 nonzeros
Variable types: 0 continuous, 5888 integer (5888 binary)

Root relaxation: objective 2.305556e+01, 1054 iterations, 0.02 seconds

    Nodes    |    Current Node    |     Objective Bounds      |     Work
 Expl Unexpl |  Obj  Depth IntInf | Incumbent    BestBd   Gap | It/Node Time

     0     0   23.05556    0   26   15.00000   23.05556  53.7%     -    0s
H    0     0                      17.5000000   23.05556  31.7%     -    0s
     0     0   23.05556    0   58   17.50000   23.05556  31.7%     -    0s
     0     0   23.05556    0   58   17.50000   23.05556  31.7%     -    0s
     0     0   23.05556    0   20   17.50000   23.05556  31.7%     -    0s
     0     0   23.05556    0   68   17.50000   23.05556  31.7%     -    0s
     0     0   21.11111    0   44   17.50000   21.11111  20.6%     -    0s
     0     0   21.11111    0   50   17.50000   21.11111  20.6%     -    1s
     0     0   21.11111    0   52   17.50000   21.11111  20.6%     -    1s
     0     0   21.11111    0   50   17.50000   21.11111  20.6%     -    1s
     0     0   21.11111    0   16   17.50000   21.11111  20.6%     -    1s
     0     0   21.11111    0   15   17.50000   21.11111  20.6%     -    1s
     0     0   21.11111    0   14   17.50000   21.11111  20.6%     -    1s
     0     0   21.11111    0   18   17.50000   21.11111  20.6%     -    1s
     0     0   21.05081    0   30   17.50000   21.05081  20.3%     -    1s
     0     0   21.02066    0   61   17.50000   21.02066  20.1%     -    1s
     0     0   21.02066    0   67   17.50000   21.02066  20.1%     -    1s
     0     0   20.99051    0   87   17.50000   20.99051  19.9%     -    1s
     0     0   20.96036    0  101   17.50000   20.96036  19.8%     -    1s
     0     0   20.96036    0  102   17.50000   20.96036  19.8%     -    1s
     0     0   20.86162    0  111   17.50000   20.86162  19.2%     -    1s
     0     0   20.86162    0  114   17.50000   20.86162  19.2%     -    2s
     0     0   20.74327    0  121   17.50000   20.74327  18.5%     -    2s
     0     0   20.74327    0  134   17.50000   20.74327  18.5%     -    2s
     0     0   20.40782    0  137   17.50000   20.40782  16.6%     -    2s
     0     0   20.40782    0  140   17.50000   20.40782  16.6%     -    2s
     0     0   20.02195    0  141   17.50000   20.02195  14.4%     -    2s
     0     0   20.02195    0  141   17.50000   20.02195  14.4%     -    2s
     0     0   19.28644    0  146   17.50000   19.28644  10.2%     -    2s
     0     0   19.21036    0  138   17.50000   19.21036  9.77%     -    2s
     0     0   19.21036    0  136   17.50000   19.21036  9.77%     -    2s
     0     0   19.01086    0  124   17.50000   19.01086  8.63%     -    3s
     0     0   19.01086    0  137   17.50000   19.01086  8.63%     -    3s
     0     0   18.99383    0  149   17.50000   18.99383  8.54%     -    3s
     0     0   18.99383    0   60   17.50000   18.99383  8.54%     -    3s
     0     2   18.99383    0   53   17.50000   18.99383  8.54%     -    3s

Cutting planes:
  Gomory: 10
  Cover: 20
  Clique: 42
  MIR: 122
  GUB cover: 4

Explored 35 nodes (15472 simplex iterations) in 3.67 seconds
Thread count was 8 (of 8 available processors)

Solution count 2: 17.5 15 

Optimal solution found (tolerance 1.00e-04)
Best objective 1.750000000000e+01, best bound 1.750000000000e+01, gap 0.0000%

Gurobi 8.1.0 (linux64, Python) logging started Thu Jul 25 18:30:30 2019

Academic license - for non-commercial use only
Optimize a model with 14917 rows, 46596 columns and 144427 nonzeros
Variable types: 0 continuous, 46596 integer (46596 binary)
Coefficient statistics:
  Matrix range     [1e+00, 2e+02]
  Objective range  [5e-01, 1e+00]
  Bounds range     [1e+00, 1e+00]
  RHS range        [1e+00, 6e+00]
Found heuristic solution: objective 15.0000000
Presolve removed 12141 rows and 40708 columns
Presolve time: 0.16s
Presolved: 2776 rows, 5888 columns, 24142 nonzeros
Variable types: 0 continuous, 5888 integer (5888 binary)

Root relaxation: objective 2.305556e+01, 1054 iterations, 0.01 seconds

    Nodes    |    Current Node    |     Objective Bounds      |     Work
 Expl Unexpl |  Obj  Depth IntInf | Incumbent    BestBd   Gap | It/Node Time

     0     0   23.05556    0   26   15.00000   23.05556  53.7%     -    0s
H    0     0                      17.5000000   23.05556  31.7%     -    0s
     0     0   23.05556    0   58   17.50000   23.05556  31.7%     -    0s
     0     0   23.05556    0   58   17.50000   23.05556  31.7%     -    0s
     0     0   23.05556    0   20   17.50000   23.05556  31.7%     -    0s
     0     0   23.05556    0   68   17.50000   23.05556  31.7%     -    0s
     0     0   21.11111    0   44   17.50000   21.11111  20.6%     -    0s
     0     0   21.11111    0   50   17.50000   21.11111  20.6%     -    0s
     0     0   21.11111    0   52   17.50000   21.11111  20.6%     -    1s
     0     0   21.11111    0   50   17.50000   21.11111  20.6%     -    1s
     0     0   21.11111    0   16   17.50000   21.11111  20.6%     -    1s
     0     0   21.11111    0   15   17.50000   21.11111  20.6%     -    1s
     0     0   21.11111    0   14   17.50000   21.11111  20.6%     -    1s
     0     0   21.11111    0   18   17.50000   21.11111  20.6%     -    1s
     0     0   21.05081    0   30   17.50000   21.05081  20.3%     -    1s
     0     0   21.02066    0   61   17.50000   21.02066  20.1%     -    1s
     0     0   21.02066    0   67   17.50000   21.02066  20.1%     -    1s
     0     0   20.99051    0   87   17.50000   20.99051  19.9%     -    1s
     0     0   20.96036    0  101   17.50000   20.96036  19.8%     -    1s
     0     0   20.96036    0  102   17.50000   20.96036  19.8%     -    1s
     0     0   20.86162    0  111   17.50000   20.86162  19.2%     -    1s
     0     0   20.86162    0  114   17.50000   20.86162  19.2%     -    1s
     0     0   20.74327    0  121   17.50000   20.74327  18.5%     -    2s
     0     0   20.74327    0  134   17.50000   20.74327  18.5%     -    2s
     0     0   20.40782    0  137   17.50000   20.40782  16.6%     -    2s
     0     0   20.40782    0  140   17.50000   20.40782  16.6%     -    2s
     0     0   20.02195    0  141   17.50000   20.02195  14.4%     -    2s
     0     0   20.02195    0  141   17.50000   20.02195  14.4%     -    2s
     0     0   19.28644    0  146   17.50000   19.28644  10.2%     -    2s
     0     0   19.21036    0  138   17.50000   19.21036  9.77%     -    2s
     0     0   19.21036    0  136   17.50000   19.21036  9.77%     -    2s
     0     0   19.01086    0  124   17.50000   19.01086  8.63%     -    2s
     0     0   19.01086    0  137   17.50000   19.01086  8.63%     -    2s
     0     0   18.99383    0  149   17.50000   18.99383  8.54%     -    3s
     0     0   18.99383    0   60   17.50000   18.99383  8.54%     -    3s
     0     2   18.99383    0   53   17.50000   18.99383  8.54%     -    3s

Cutting planes:
  Gomory: 10
  Cover: 20
  Clique: 42
  MIR: 122
  GUB cover: 4

Explored 35 nodes (15472 simplex iterations) in 3.54 seconds
Thread count was 8 (of 8 available processors)

Solution count 2: 17.5 15 

Optimal solution found (tolerance 1.00e-04)
Best objective 1.750000000000e+01, best bound 1.750000000000e+01, gap 0.0000%

Gurobi 8.1.0 (linux64, Python) logging started Thu Jul 25 18:31:17 2019

Academic license - for non-commercial use only
Optimize a model with 14917 rows, 46596 columns and 144427 nonzeros
Variable types: 0 continuous, 46596 integer (46596 binary)
Coefficient statistics:
  Matrix range     [1e+00, 2e+02]
  Objective range  [5e-01, 1e+00]
  Bounds range     [1e+00, 1e+00]
  RHS range        [1e+00, 6e+00]
Found heuristic solution: objective 15.0000000
Presolve removed 12141 rows and 40708 columns
Presolve time: 0.17s
Presolved: 2776 rows, 5888 columns, 24142 nonzeros
Variable types: 0 continuous, 5888 integer (5888 binary)

Root relaxation: objective 2.305556e+01, 1054 iterations, 0.02 seconds

    Nodes    |    Current Node    |     Objective Bounds      |     Work
 Expl Unexpl |  Obj  Depth IntInf | Incumbent    BestBd   Gap | It/Node Time

     0     0   23.05556    0   26   15.00000   23.05556  53.7%     -    0s
H    0     0                      17.5000000   23.05556  31.7%     -    0s
     0     0   23.05556    0   58   17.50000   23.05556  31.7%     -    0s
     0     0   23.05556    0   58   17.50000   23.05556  31.7%     -    0s
     0     0   23.05556    0   20   17.50000   23.05556  31.7%     -    0s
     0     0   23.05556    0   68   17.50000   23.05556  31.7%     -    0s
     0     0   21.11111    0   44   17.50000   21.11111  20.6%     -    0s
     0     0   21.11111    0   50   17.50000   21.11111  20.6%     -    1s
     0     0   21.11111    0   52   17.50000   21.11111  20.6%     -    1s
     0     0   21.11111    0   50   17.50000   21.11111  20.6%     -    1s
     0     0   21.11111    0   16   17.50000   21.11111  20.6%     -    1s
     0     0   21.11111    0   15   17.50000   21.11111  20.6%     -    1s
     0     0   21.11111    0   14   17.50000   21.11111  20.6%     -    1s
     0     0   21.11111    0   18   17.50000   21.11111  20.6%     -    1s
     0     0   21.05081    0   30   17.50000   21.05081  20.3%     -    1s
     0     0   21.02066    0   61   17.50000   21.02066  20.1%     -    1s
     0     0   21.02066    0   67   17.50000   21.02066  20.1%     -    1s
     0     0   20.99051    0   87   17.50000   20.99051  19.9%     -    1s
     0     0   20.96036    0  101   17.50000   20.96036  19.8%     -    1s
     0     0   20.96036    0  102   17.50000   20.96036  19.8%     -    1s
     0     0   20.86162    0  111   17.50000   20.86162  19.2%     -    2s
     0     0   20.86162    0  114   17.50000   20.86162  19.2%     -    2s
     0     0   20.74327    0  121   17.50000   20.74327  18.5%     -    2s
     0     0   20.74327    0  134   17.50000   20.74327  18.5%     -    2s
     0     0   20.40782    0  137   17.50000   20.40782  16.6%     -    2s
     0     0   20.40782    0  140   17.50000   20.40782  16.6%     -    2s
     0     0   20.02195    0  141   17.50000   20.02195  14.4%     -    2s
     0     0   20.02195    0  141   17.50000   20.02195  14.4%     -    2s
     0     0   19.28644    0  146   17.50000   19.28644  10.2%     -    2s
     0     0   19.21036    0  138   17.50000   19.21036  9.77%     -    2s
     0     0   19.21036    0  136   17.50000   19.21036  9.77%     -    2s
     0     0   19.01086    0  124   17.50000   19.01086  8.63%     -    3s
     0     0   19.01086    0  137   17.50000   19.01086  8.63%     -    3s
     0     0   18.99383    0  149   17.50000   18.99383  8.54%     -    3s
     0     0   18.99383    0   60   17.50000   18.99383  8.54%     -    3s
     0     2   18.99383    0   53   17.50000   18.99383  8.54%     -    3s

Cutting planes:
  Gomory: 10
  Cover: 20
  Clique: 42
  MIR: 122
  GUB cover: 4

Explored 35 nodes (15472 simplex iterations) in 3.75 seconds
Thread count was 8 (of 8 available processors)

Solution count 2: 17.5 15 

Optimal solution found (tolerance 1.00e-04)
Best objective 1.750000000000e+01, best bound 1.750000000000e+01, gap 0.0000%

Gurobi 8.1.0 (linux64, Python) logging started Thu Jul 25 18:34:12 2019

Academic license - for non-commercial use only
Optimize a model with 14917 rows, 46596 columns and 144427 nonzeros
Variable types: 0 continuous, 46596 integer (46596 binary)
Coefficient statistics:
  Matrix range     [1e+00, 2e+02]
  Objective range  [5e-01, 1e+00]
  Bounds range     [1e+00, 1e+00]
  RHS range        [1e+00, 6e+00]
Found heuristic solution: objective 15.0000000
Presolve removed 12141 rows and 40708 columns
Presolve time: 0.16s
Presolved: 2776 rows, 5888 columns, 24142 nonzeros
Variable types: 0 continuous, 5888 integer (5888 binary)

Root relaxation: objective 2.305556e+01, 1054 iterations, 0.01 seconds

    Nodes    |    Current Node    |     Objective Bounds      |     Work
 Expl Unexpl |  Obj  Depth IntInf | Incumbent    BestBd   Gap | It/Node Time

     0     0   23.05556    0   26   15.00000   23.05556  53.7%     -    0s
H    0     0                      17.5000000   23.05556  31.7%     -    0s
     0     0   23.05556    0   58   17.50000   23.05556  31.7%     -    0s
     0     0   23.05556    0   58   17.50000   23.05556  31.7%     -    0s
     0     0   23.05556    0   20   17.50000   23.05556  31.7%     -    0s
     0     0   23.05556    0   68   17.50000   23.05556  31.7%     -    0s
     0     0   21.11111    0   44   17.50000   21.11111  20.6%     -    0s
     0     0   21.11111    0   50   17.50000   21.11111  20.6%     -    0s
     0     0   21.11111    0   52   17.50000   21.11111  20.6%     -    1s
     0     0   21.11111    0   50   17.50000   21.11111  20.6%     -    1s
     0     0   21.11111    0   16   17.50000   21.11111  20.6%     -    1s
     0     0   21.11111    0   15   17.50000   21.11111  20.6%     -    1s
     0     0   21.11111    0   14   17.50000   21.11111  20.6%     -    1s
     0     0   21.11111    0   18   17.50000   21.11111  20.6%     -    1s
     0     0   21.05081    0   30   17.50000   21.05081  20.3%     -    1s
     0     0   21.02066    0   61   17.50000   21.02066  20.1%     -    1s
     0     0   21.02066    0   67   17.50000   21.02066  20.1%     -    1s
     0     0   20.99051    0   87   17.50000   20.99051  19.9%     -    1s
     0     0   20.96036    0  101   17.50000   20.96036  19.8%     -    1s
     0     0   20.96036    0  102   17.50000   20.96036  19.8%     -    1s
     0     0   20.86162    0  111   17.50000   20.86162  19.2%     -    1s
     0     0   20.86162    0  114   17.50000   20.86162  19.2%     -    2s
     0     0   20.74327    0  121   17.50000   20.74327  18.5%     -    2s
     0     0   20.74327    0  134   17.50000   20.74327  18.5%     -    2s
     0     0   20.40782    0  137   17.50000   20.40782  16.6%     -    2s
     0     0   20.40782    0  140   17.50000   20.40782  16.6%     -    2s
     0     0   20.02195    0  141   17.50000   20.02195  14.4%     -    2s
     0     0   20.02195    0  141   17.50000   20.02195  14.4%     -    2s
     0     0   19.28644    0  146   17.50000   19.28644  10.2%     -    2s
     0     0   19.21036    0  138   17.50000   19.21036  9.77%     -    2s
     0     0   19.21036    0  136   17.50000   19.21036  9.77%     -    2s
     0     0   19.01086    0  124   17.50000   19.01086  8.63%     -    3s
     0     0   19.01086    0  137   17.50000   19.01086  8.63%     -    3s
     0     0   18.99383    0  149   17.50000   18.99383  8.54%     -    3s
     0     0   18.99383    0   60   17.50000   18.99383  8.54%     -    3s
     0     2   18.99383    0   53   17.50000   18.99383  8.54%     -    3s

Cutting planes:
  Gomory: 10
  Cover: 20
  Clique: 42
  MIR: 122
  GUB cover: 4

Explored 35 nodes (15472 simplex iterations) in 3.73 seconds
Thread count was 8 (of 8 available processors)

Solution count 2: 17.5 15 

Optimal solution found (tolerance 1.00e-04)
Best objective 1.750000000000e+01, best bound 1.750000000000e+01, gap 0.0000%

Gurobi 8.1.0 (linux64, Python) logging started Thu Jul 25 18:47:22 2019

Academic license - for non-commercial use only
Optimize a model with 14917 rows, 46596 columns and 144427 nonzeros
Variable types: 0 continuous, 46596 integer (46596 binary)
Coefficient statistics:
  Matrix range     [1e+00, 2e+02]
  Objective range  [5e-01, 1e+00]
  Bounds range     [1e+00, 1e+00]
  RHS range        [1e+00, 6e+00]
Found heuristic solution: objective 15.0000000
Presolve removed 12141 rows and 40708 columns
Presolve time: 0.17s
Presolved: 2776 rows, 5888 columns, 24142 nonzeros
Variable types: 0 continuous, 5888 integer (5888 binary)

Root relaxation: objective 2.305556e+01, 1054 iterations, 0.02 seconds

    Nodes    |    Current Node    |     Objective Bounds      |     Work
 Expl Unexpl |  Obj  Depth IntInf | Incumbent    BestBd   Gap | It/Node Time

     0     0   23.05556    0   26   15.00000   23.05556  53.7%     -    0s
H    0     0                      17.5000000   23.05556  31.7%     -    0s
     0     0   23.05556    0   58   17.50000   23.05556  31.7%     -    0s
     0     0   23.05556    0   58   17.50000   23.05556  31.7%     -    0s
     0     0   23.05556    0   20   17.50000   23.05556  31.7%     -    0s
     0     0   23.05556    0   68   17.50000   23.05556  31.7%     -    0s
     0     0   21.11111    0   44   17.50000   21.11111  20.6%     -    0s
     0     0   21.11111    0   50   17.50000   21.11111  20.6%     -    1s
     0     0   21.11111    0   52   17.50000   21.11111  20.6%     -    1s
     0     0   21.11111    0   50   17.50000   21.11111  20.6%     -    1s
     0     0   21.11111    0   16   17.50000   21.11111  20.6%     -    1s
     0     0   21.11111    0   15   17.50000   21.11111  20.6%     -    1s
     0     0   21.11111    0   14   17.50000   21.11111  20.6%     -    1s
     0     0   21.11111    0   18   17.50000   21.11111  20.6%     -    1s
     0     0   21.05081    0   30   17.50000   21.05081  20.3%     -    1s
     0     0   21.02066    0   61   17.50000   21.02066  20.1%     -    1s
     0     0   21.02066    0   67   17.50000   21.02066  20.1%     -    1s
     0     0   20.99051    0   87   17.50000   20.99051  19.9%     -    1s
     0     0   20.96036    0  101   17.50000   20.96036  19.8%     -    1s
     0     0   20.96036    0  102   17.50000   20.96036  19.8%     -    1s
     0     0   20.86162    0  111   17.50000   20.86162  19.2%     -    1s
     0     0   20.86162    0  114   17.50000   20.86162  19.2%     -    1s
     0     0   20.74327    0  121   17.50000   20.74327  18.5%     -    2s
     0     0   20.74327    0  134   17.50000   20.74327  18.5%     -    2s
     0     0   20.40782    0  137   17.50000   20.40782  16.6%     -    2s
     0     0   20.40782    0  140   17.50000   20.40782  16.6%     -    2s
     0     0   20.02195    0  141   17.50000   20.02195  14.4%     -    2s
     0     0   20.02195    0  141   17.50000   20.02195  14.4%     -    2s
     0     0   19.28644    0  146   17.50000   19.28644  10.2%     -    2s
     0     0   19.21036    0  138   17.50000   19.21036  9.77%     -    2s
     0     0   19.21036    0  136   17.50000   19.21036  9.77%     -    2s
     0     0   19.01086    0  124   17.50000   19.01086  8.63%     -    2s
     0     0   19.01086    0  137   17.50000   19.01086  8.63%     -    3s
     0     0   18.99383    0  149   17.50000   18.99383  8.54%     -    3s
     0     0   18.99383    0   60   17.50000   18.99383  8.54%     -    3s
     0     2   18.99383    0   53   17.50000   18.99383  8.54%     -    3s

Cutting planes:
  Gomory: 10
  Cover: 20
  Clique: 42
  MIR: 122
  GUB cover: 4

Explored 35 nodes (15472 simplex iterations) in 3.56 seconds
Thread count was 8 (of 8 available processors)

Solution count 2: 17.5 15 

Optimal solution found (tolerance 1.00e-04)
Best objective 1.750000000000e+01, best bound 1.750000000000e+01, gap 0.0000%

Gurobi 8.1.0 (linux64, Python) logging started Thu Jul 25 18:51:00 2019

Academic license - for non-commercial use only
Optimize a model with 15150 rows, 46596 columns and 160807 nonzeros
Variable types: 0 continuous, 46596 integer (46596 binary)
Coefficient statistics:
  Matrix range     [1e+00, 2e+02]
  Objective range  [5e-01, 1e+00]
  Bounds range     [1e+00, 1e+00]
  RHS range        [1e+00, 6e+00]
Found heuristic solution: objective 15.0000000
Presolve removed 12374 rows and 40708 columns
Presolve time: 0.17s
Presolved: 2776 rows, 5888 columns, 24142 nonzeros
Variable types: 0 continuous, 5888 integer (5888 binary)

Root relaxation: objective 2.305556e+01, 1054 iterations, 0.01 seconds

    Nodes    |    Current Node    |     Objective Bounds      |     Work
 Expl Unexpl |  Obj  Depth IntInf | Incumbent    BestBd   Gap | It/Node Time

     0     0   23.05556    0   26   15.00000   23.05556  53.7%     -    0s
H    0     0                      17.5000000   23.05556  31.7%     -    0s
     0     0   23.05556    0   58   17.50000   23.05556  31.7%     -    0s
     0     0   23.05556    0   58   17.50000   23.05556  31.7%     -    0s
     0     0   23.05556    0   20   17.50000   23.05556  31.7%     -    0s
     0     0   23.05556    0   68   17.50000   23.05556  31.7%     -    0s
     0     0   21.11111    0   44   17.50000   21.11111  20.6%     -    0s
     0     0   21.11111    0   50   17.50000   21.11111  20.6%     -    1s
     0     0   21.11111    0   52   17.50000   21.11111  20.6%     -    1s
     0     0   21.11111    0   50   17.50000   21.11111  20.6%     -    1s
     0     0   21.11111    0   16   17.50000   21.11111  20.6%     -    1s
     0     0   21.11111    0   15   17.50000   21.11111  20.6%     -    1s
     0     0   21.11111    0   14   17.50000   21.11111  20.6%     -    1s
     0     0   21.11111    0   18   17.50000   21.11111  20.6%     -    1s
     0     0   21.05081    0   30   17.50000   21.05081  20.3%     -    1s
     0     0   21.02066    0   61   17.50000   21.02066  20.1%     -    1s
     0     0   21.02066    0   67   17.50000   21.02066  20.1%     -    1s
     0     0   20.99051    0   87   17.50000   20.99051  19.9%     -    1s
     0     0   20.96036    0  101   17.50000   20.96036  19.8%     -    1s
     0     0   20.96036    0  102   17.50000   20.96036  19.8%     -    1s
     0     0   20.86162    0  111   17.50000   20.86162  19.2%     -    1s
     0     0   20.86162    0  114   17.50000   20.86162  19.2%     -    2s
     0     0   20.74327    0  121   17.50000   20.74327  18.5%     -    2s
     0     0   20.74327    0  134   17.50000   20.74327  18.5%     -    2s
     0     0   20.40782    0  137   17.50000   20.40782  16.6%     -    2s
     0     0   20.40782    0  140   17.50000   20.40782  16.6%     -    2s
     0     0   20.02195    0  141   17.50000   20.02195  14.4%     -    2s
     0     0   20.02195    0  141   17.50000   20.02195  14.4%     -    2s
     0     0   19.28644    0  146   17.50000   19.28644  10.2%     -    2s
     0     0   19.21036    0  138   17.50000   19.21036  9.77%     -    2s
     0     0   19.21036    0  136   17.50000   19.21036  9.77%     -    2s
     0     0   19.01086    0  124   17.50000   19.01086  8.63%     -    3s
     0     0   19.01086    0  137   17.50000   19.01086  8.63%     -    3s
     0     0   18.99383    0  149   17.50000   18.99383  8.54%     -    3s
     0     0   18.99383    0   60   17.50000   18.99383  8.54%     -    3s
     0     2   18.99383    0   53   17.50000   18.99383  8.54%     -    3s

Cutting planes:
  Gomory: 10
  Cover: 20
  Clique: 42
  MIR: 122
  GUB cover: 4

Explored 35 nodes (15472 simplex iterations) in 3.61 seconds
Thread count was 8 (of 8 available processors)

Solution count 2: 17.5 15 

Optimal solution found (tolerance 1.00e-04)
Best objective 1.750000000000e+01, best bound 1.750000000000e+01, gap 0.0000%

Gurobi 8.1.0 (linux64, Python) logging started Thu Jul 25 18:57:56 2019

Academic license - for non-commercial use only
Optimize a model with 5910 rows, 16944 columns and 58476 nonzeros
Variable types: 0 continuous, 16944 integer (16944 binary)
Coefficient statistics:
  Matrix range     [1e+00, 2e+02]
  Objective range  [5e-01, 1e+00]
  Bounds range     [1e+00, 1e+00]
  RHS range        [1e+00, 6e+00]
Found heuristic solution: objective 5.0000000
Presolve removed 4601 rows and 14476 columns
Presolve time: 0.06s
Presolved: 1309 rows, 2468 columns, 10065 nonzeros
Variable types: 0 continuous, 2468 integer (2468 binary)

Root relaxation: objective 9.652778e+00, 403 iterations, 0.00 seconds

    Nodes    |    Current Node    |     Objective Bounds      |     Work
 Expl Unexpl |  Obj  Depth IntInf | Incumbent    BestBd   Gap | It/Node Time

     0     0    9.65278    0   17    5.00000    9.65278  93.1%     -    0s
H    0     0                       6.0000000    9.65278  60.9%     -    0s
     0     0    8.55556    0   32    6.00000    8.55556  42.6%     -    0s
     0     0    8.55556    0   37    6.00000    8.55556  42.6%     -    0s
     0     0    8.55556    0   31    6.00000    8.55556  42.6%     -    0s
     0     0    8.55556    0   38    6.00000    8.55556  42.6%     -    0s
     0     0    8.55556    0   15    6.00000    8.55556  42.6%     -    0s
     0     0    8.55556    0   19    6.00000    8.55556  42.6%     -    0s
     0     0    8.55556    0   19    6.00000    8.55556  42.6%     -    0s
     0     0    8.55556    0   19    6.00000    8.55556  42.6%     -    0s
     0     2    8.55556    0   18    6.00000    8.55556  42.6%     -    0s

Cutting planes:
  Gomory: 33
  Cover: 23
  Clique: 45
  MIR: 4
  StrongCG: 1
  Flow cover: 12
  GUB cover: 3
  Zero half: 11

Explored 1071 nodes (16161 simplex iterations) in 1.22 seconds
Thread count was 8 (of 8 available processors)

Solution count 2: 6 5 

Optimal solution found (tolerance 1.00e-04)
Best objective 6.000000000000e+00, best bound 6.000000000000e+00, gap 0.0000%
